Route 1: 0 42 32 12 66 24 97 17 44 0
Route 2: 0 90 50 88 61 13 83 71 6 0
Route 3: 0 38 70 58 45 78 11 64 76 65 3 94 20 0
Route 4: 0 49 48 40 60 21 22 0
Route 5: 0 15 41 53 98 33 28 57 14 8 80 46 10 0
Route 6: 0 35 39 43 47 72 34 36 37 86 23 0
Route 7: 0 9 99 100 18 31 51 56 4 30 0
Route 8: 0 95 85 7 52 1 29 16 67 92 73 0
Route 9: 0 68 63 59 25 27 75 82 74 55 77 81 0
Route 10: 0 62 54 79 19 93 91 84 2 87 0
Route 11: 0 96 69 89 26 5 0
